<?xml version = "1.0" standalone="yes"?>
<!-- This file has been generated by DOcplex version 2.23.222  -->
<CPLEXSolution version="1.0">
 <header
   problemName="CVRP"
   objectiveValue="11613.7"
  />
 <variables>
  <variable name="x_0_1" index="0" value="1.00000"/>
  <variable name="x_0_3" index="2" value="1.00000"/>
  <variable name="x_0_7" index="6" value="1.00000"/>
  <variable name="x_0_8" index="7" value="1.00000"/>
  <variable name="x_0_10" index="9" value="1.00000"/>
  <variable name="x_0_11" index="10" value="1.00000"/>
  <variable name="x_0_12" index="11" value="1.00000"/>
  <variable name="x_0_13" index="12" value="1.00000"/>
  <variable name="x_0_14" index="13" value="1.00000"/>
  <variable name="x_0_15" index="14" value="1.00000"/>
  <variable name="x_0_18" index="17" value="1.00000"/>
  <variable name="x_1_0" index="19" value="1.00000"/>
  <variable name="x_2_0" index="38" value="1.00000"/>
  <variable name="x_3_6" index="62" value="1.00000"/>
  <variable name="x_4_0" index="76" value="1.00000"/>
  <variable name="x_5_17" index="111" value="1.00000"/>
  <variable name="x_6_16" index="129" value="1.00000"/>
  <variable name="x_7_19" index="151" value="1.00000"/>
  <variable name="x_8_0" index="152" value="1.00000"/>
  <variable name="x_9_0" index="171" value="1.00000"/>
  <variable name="x_10_0" index="190" value="1.00000"/>
  <variable name="x_11_9" index="218" value="1.00000"/>
  <variable name="x_12_0" index="228" value="1.00000"/>
  <variable name="x_13_0" index="247" value="1.00000"/>
  <variable name="x_14_4" index="270" value="1.00000"/>
  <variable name="x_15_2" index="287" value="1.00000"/>
  <variable name="x_16_0" index="304" value="1.00000"/>
  <variable name="x_17_0" index="323" value="1.00000"/>
  <variable name="x_18_5" index="347" value="1.00000"/>
  <variable name="x_19_0" index="361" value="1.00000"/>
  <variable name="u_1" index="380" value="66.00000"/>
  <variable name="u_2" index="381" value="55.00000"/>
  <variable name="u_3" index="382" value="14.00000"/>
  <variable name="u_4" index="383" value="51.00000"/>
  <variable name="u_5" index="384" value="44.00000"/>
  <variable name="u_6" index="385" value="47.00000"/>
  <variable name="u_7" index="386" value="4.00000"/>
  <variable name="u_8" index="387" value="66.00000"/>
  <variable name="u_9" index="388" value="68.00000"/>
  <variable name="u_10" index="389" value="45.00000"/>
  <variable name="u_11" index="390" value="44.00000"/>
  <variable name="u_12" index="391" value="62.00000"/>
  <variable name="u_13" index="392" value="56.00000"/>
  <variable name="u_14" index="393" value="7.00000"/>
  <variable name="u_15" index="394" value="17.00000"/>
  <variable name="u_16" index="395" value="64.00000"/>
  <variable name="u_17" index="396" value="52.00000"/>
  <variable name="u_18" index="397" value="42.00000"/>
  <variable name="u_19" index="398" value="57.00000"/>
 </variables>
</CPLEXSolution>
